100 997
946 819 420 800 406 941 70 560 795 583 595 695 463 742 171 352 858 182 887 606 470 955 552 764 493 363 588 220 982 261 793 796 872 347 768 785 741 187 339 408 320 442 518 127 23 375 513 1 593 686 235 239 751 129 232 518 551 992 212 487 548 954 166 898 599 153 261 970 753 938 317 955 181 154 107 518 2 265 20 868 503 818 906 254 517 177 302 459 784 571 246 2 686 273 272 387 101 604 541 465 
204 448 654 863 928 294 801 608 769 70 8 183 696 616 561 801 481 396 997 458 737 844 656 331 465 132 70 636 810 171 398 800 240 617 744 109 448 553 160 59 451 902 730 634 731 47 358 526 659 668 507 652 289 464 581 588 909 31 472 54 209 87 180 303 880 840 465 115 720 270 722 378 906 803 892 557 615 551 837 183 866 122 599 422 226 38 284 640 630 775 497 489 977 572 700 57 117 853 264 128 
